param n := 60;
param c := 1000;
param : V : p w :=
   0	  46	 494
   1	  58	 250
   2	  99	 256
   3	  91	 429
   4	  43	 266
   5	  81	 305
   6	  90	 378
   7	  13	 268
   8	  77	 354
   9	  89	 482
  10	  38	 251
  11	  42	 267
  12	   9	 464
  13	  95	 259
  14	  90	 277
  15	  87	 398
  16	  33	 276
  17	  19	 326
  18	  46	 390
  19	  99	 260
  20	  20	 350
  21	  69	 482
  22	   9	 251
  23	  90	 267
  24	  15	 430
  25	  43	 262
  26	  21	 308
  27	  39	 400
  28	  70	 261
  29	  21	 339
  30	  77	 498
  31	  88	 250
  32	  24	 252
  33	  68	 362
  34	   8	 288
  35	  59	 350
  36	  84	 498
  37	  48	 250
  38	  37	 252
  39	  66	 459
  40	  93	 260
  41	  19	 281
  42	  86	 401
  43	  90	 271
  44	  38	 328
  45	  80	 367
  46	  92	 288
  47	  24	 345
  48	  72	 352
  49	  35	 279
  50	  37	 369
  51	  32	 476
  52	  92	 261
  53	  60	 263
  54	  89	 479
  55	  14	 254
  56	  58	 267
  57	  10	 436
  58	  74	 280
  59	  84	 284
;

set E :=
   0	   7
   0	  10
   0	  12
   0	  18
   0	  24
   0	  25
   0	  30
   0	  52
   1	  10
   1	  14
   1	  17
   1	  22
   1	  23
   1	  45
   1	  47
   1	  58
   2	   5
   2	  13
   2	  14
   2	  16
   2	  17
   2	  18
   2	  21
   2	  24
   2	  32
   2	  43
   2	  52
   2	  58
   3	   6
   3	   7
   3	   8
   3	  11
   3	  12
   3	  14
   3	  28
   3	  29
   3	  31
   3	  42
   3	  47
   3	  48
   3	  53
   4	   5
   4	   6
   4	  18
   4	  23
   4	  24
   4	  33
   4	  34
   4	  36
   4	  37
   4	  38
   4	  56
   4	  57
   4	  58
   5	   6
   5	  15
   5	  24
   5	  26
   5	  27
   5	  35
   5	  36
   5	  42
   5	  45
   5	  54
   6	   7
   6	  10
   6	  16
   6	  18
   6	  19
   6	  21
   6	  23
   6	  27
   6	  28
   6	  31
   6	  38
   6	  42
   6	  52
   7	  16
   7	  18
   7	  19
   7	  20
   7	  23
   7	  24
   7	  25
   7	  31
   7	  43
   8	   9
   8	  10
   8	  13
   8	  17
   8	  18
   8	  22
   8	  26
   8	  27
   8	  28
   8	  29
   8	  30
   8	  31
   8	  32
   8	  36
   8	  40
   8	  41
   8	  52
   8	  58
   9	  18
   9	  19
   9	  22
   9	  25
   9	  30
   9	  37
   9	  54
   9	  55
  10	  17
  10	  19
  10	  20
  10	  38
  10	  51
  10	  58
  11	  13
  11	  18
  11	  40
  11	  50
  11	  51
  11	  52
  11	  53
  11	  55
  11	  58
  12	  14
  12	  22
  12	  27
  12	  29
  12	  30
  12	  32
  12	  36
  12	  39
  12	  54
  13	  15
  13	  16
  13	  27
  13	  30
  13	  34
  13	  37
  13	  39
  13	  46
  13	  51
  13	  55
  14	  16
  14	  17
  14	  20
  14	  21
  14	  22
  14	  38
  14	  40
  14	  43
  14	  48
  14	  49
  14	  50
  14	  54
  14	  57
  14	  58
  15	  22
  15	  24
  15	  27
  15	  32
  15	  39
  15	  40
  15	  41
  15	  53
  15	  56
  15	  59
  16	  19
  16	  23
  16	  27
  16	  30
  16	  32
  16	  35
  16	  36
  16	  40
  16	  44
  16	  46
  17	  18
  17	  35
  17	  38
  17	  45
  17	  46
  17	  55
  17	  56
  17	  59
  18	  30
  18	  33
  18	  37
  18	  38
  18	  39
  18	  40
  18	  42
  18	  51
  18	  52
  18	  55
  18	  59
  19	  28
  19	  33
  19	  34
  19	  36
  19	  41
  19	  42
  19	  49
  19	  57
  20	  22
  20	  25
  20	  26
  20	  29
  20	  39
  21	  22
  21	  26
  21	  27
  21	  33
  21	  38
  21	  39
  21	  46
  21	  47
  22	  24
  22	  27
  22	  28
  22	  30
  22	  34
  22	  38
  22	  39
  22	  44
  22	  47
  22	  49
  22	  51
  22	  56
  22	  58
  23	  29
  23	  34
  23	  38
  23	  44
  23	  45
  23	  47
  23	  50
  23	  51
  24	  29
  24	  31
  24	  36
  24	  44
  24	  47
  24	  48
  24	  58
  24	  59
  25	  30
  25	  38
  25	  40
  25	  42
  26	  27
  26	  28
  26	  33
  26	  35
  26	  39
  26	  43
  26	  45
  26	  49
  26	  53
  27	  28
  27	  37
  27	  40
  27	  44
  27	  47
  27	  50
  27	  53
  27	  58
  27	  59
  28	  30
  28	  36
  28	  40
  28	  46
  28	  55
  28	  56
  28	  57
  29	  30
  29	  40
  29	  53
  29	  55
  29	  57
  30	  33
  30	  34
  30	  37
  30	  39
  30	  47
  31	  32
  31	  33
  31	  36
  31	  42
  31	  44
  31	  45
  31	  47
  31	  49
  32	  50
  32	  56
  32	  58
  33	  35
  33	  43
  33	  55
  33	  59
  34	  38
  34	  41
  34	  42
  34	  51
  34	  59
  35	  46
  35	  54
  36	  42
  36	  58
  37	  40
  37	  41
  37	  47
  37	  49
  37	  53
  38	  39
  38	  48
  38	  50
  38	  51
  38	  58
  38	  59
  39	  41
  39	  43
  39	  44
  39	  45
  39	  51
  39	  56
  40	  50
  40	  53
  41	  49
  42	  43
  42	  45
  42	  49
  42	  50
  42	  53
  43	  54
  43	  58
  44	  47
  44	  57
  44	  58
  45	  48
  45	  51
  45	  53
  46	  50
  47	  53
  48	  52
  48	  53
  48	  56
  49	  51
  50	  51
  50	  54
  50	  57
  52	  53
  53	  56
  53	  59
  54	  57
  55	  59
  56	  59
;
